&CONTROL
    calculation = 'scf'
    pseudo_dir = '/home/modeler/qe_pseudo'
    outdir = '/home/modeler/RemLabs/nnb/test_scf_2'
    tstress = .true.
    tprnfor = .true.
    disk_io = 'none'
/ 
&SYSTEM
    ecutwfc = 10
    ntyp = 4
    nat = 80
    ibrav = 0
/ 
&ELECTRONS
    diagonalization = 'david'
    mixing_beta = 0.5
    conv_thr = 1e-07
/ 
&IONS
/ 
&CELL
/ 
K_POINTS {automatic}
 2 2 2  0 0 0
ATOMIC_SPECIES
  B 10.81 b_pbe_v1.4.uspp.F.UPF
  H 1.008 H.pbe-rrkjus_psl.1.0.0.UPF
  N 14.007 N.pbe-n-radius_5.UPF
  Na 22.98976928 na_pbe_v1.5.uspp.F.UPF
CELL_PARAMETERS {angstrom}
 9.4 0.0 0.0
 0.0 9.4 0.0
 0.0 0.0 9.4
ATOMIC_POSITIONS {angstrom}
  Na 2.35000 0.00000 2.35000
  Na 0.00000 2.35000 2.35000
  N 2.35000 2.35000 2.35000
  H 3.27395 2.35000 2.02333
  H 1.88802 3.15017 2.02333
  B 0.00000 0.00000 0.00000
  H 1.10309 0.00000 4.31000
  H 4.14846 0.95530 4.31000
  H 4.14846 3.74470 4.31000
  H 0.00000 0.00000 1.17000
  Na 2.35000 0.00000 7.05000
  Na 0.00000 2.35000 7.05000
  N 2.35000 2.35000 7.05000
  H 3.27395 2.35000 6.72333
  H 1.88802 3.15017 6.72333
  B 0.00000 0.00000 4.70000
  H 1.10309 0.00000 9.01000
  H 4.14846 0.95530 9.01000
  H 4.14846 3.74470 9.01000
  H 0.00000 0.00000 5.87000
  Na 2.35000 4.70000 2.35000
  Na 0.00000 7.05000 2.35000
  N 2.35000 7.05000 2.35000
  H 3.27395 7.05000 2.02333
  H 1.88802 7.85017 2.02333
  B 0.00000 4.70000 0.00000
  H 1.10309 4.70000 4.31000
  H 4.14846 5.65530 4.31000
  H 4.14846 8.44470 4.31000
  H 0.00000 4.70000 1.17000
  Na 2.35000 4.70000 7.05000
  Na 0.00000 7.05000 7.05000
  N 2.35000 7.05000 7.05000
  H 3.27395 7.05000 6.72333
  H 1.88802 7.85017 6.72333
  B 0.00000 4.70000 4.70000
  H 1.10309 4.70000 9.01000
  H 4.14846 5.65530 9.01000
  H 4.14846 8.44470 9.01000
  H 0.00000 4.70000 5.87000
  Na 7.05000 0.00000 2.35000
  Na 4.70000 2.35000 2.35000
  N 7.05000 2.35000 2.35000
  H 7.97395 2.35000 2.02333
  H 6.58802 3.15017 2.02333
  B 4.70000 0.00000 0.00000
  H 5.80309 0.00000 4.31000
  H 8.84846 0.95530 4.31000
  H 8.84846 3.74470 4.31000
  H 4.70000 0.00000 1.17000
  Na 7.05000 0.00000 7.05000
  Na 4.70000 2.35000 7.05000
  N 7.05000 2.35000 7.05000
  H 7.97395 2.35000 6.72333
  H 6.58802 3.15017 6.72333
  B 4.70000 0.00000 4.70000
  H 5.80309 0.00000 9.01000
  H 8.84846 0.95530 9.01000
  H 8.84846 3.74470 9.01000
  H 4.70000 0.00000 5.87000
  Na 7.05000 4.70000 2.35000
  Na 4.70000 7.05000 2.35000
  N 7.05000 7.05000 2.35000
  H 7.97395 7.05000 2.02333
  H 6.58802 7.85017 2.02333
  B 4.70000 4.70000 0.00000
  H 5.80309 4.70000 4.31000
  H 8.84846 5.65530 4.31000
  H 8.84846 8.44470 4.31000
  H 4.70000 4.70000 1.17000
  Na 7.05000 4.70000 7.05000
  Na 4.70000 7.05000 7.05000
  N 7.05000 7.05000 7.05000
  H 7.97395 7.05000 6.72333
  H 6.58802 7.85017 6.72333
  B 4.70000 4.70000 4.70000
  H 5.80309 4.70000 9.01000
  H 8.84846 5.65530 9.01000
  H 8.84846 8.44470 9.01000
  H 4.70000 4.70000 5.87000
