
# ---------- 1. Initialize simulation ----------
units metal
atom_style atomic
dimension 3
boundary p p p
read_data /home/modeler/RemLabs/Project/eval_timestep_npt/n3_T1800_timestep2.140666e-03_steps7008/20201205-224002/lammps.data

pair_style meam/c
pair_coeff * * library.meam Li Si LiSi.meam Li Si

group Li type 1

velocity all create 1800 3320 dist gaussian

# ---------- 2. Describe computed properties----------
compute msdli Li msd
thermo_style custom step pe ke etotal temp press density c_msdli[4]
thermo 100

# ---------- 3. Specify ensemble  ----------
fix 1 all npt temp 1800 1800 0.10703330996798487 tchain 2 iso 1.0 1.0 1.0 pchain 2
# fix 1 all nvt temp 1800 1800 0.10703330996798487
# fix 1 all nve

# ---------- 4. Run -------------
timestep 0.0021406661993596974
run 7008
