
# ---------- 1. Initialize simulation ----------
units metal
atom_style atomic
dimension 3
boundary p p p
read_data /home/modeler/RemLabs/Project/eval_timestep/n3_T1300_timestep5.000000e-03_steps1001/20201204-073541/lammps.data

pair_style meam/c
pair_coeff * * library.meam Li Si LiSi.meam Li Si

group Li type 1

velocity all create 1300 3320 dist gaussian

# ---------- 2. Describe computed properties----------
compute msdli Li msd
thermo_style custom step pe ke etotal temp press density c_msdli[4]
thermo 100

# ---------- 3. Specify ensemble  ----------
#fix 1 all nve
fix 1 all nvt temp 1300 1300 0.24999999999999997
#fix 1 all npt temp 1300 1300 0.24999999999999997 tchain 2 iso 1.0 1.0 1.0 pchain 2

# ---------- 4. Run -------------
timestep 0.004999999999999999
run 1001
