&CONTROL
    calculation = 'scf'
    pseudo_dir = '/home/modeler/qe_pseudo'
    outdir = '/home/modeler/RemLabs/nnb/nk_convergence_test/nk3_ecut25'
    tstress = .true.
    tprnfor = .true.
    disk_io = 'none'
/ 
&SYSTEM
    ecutwfc = 25
    ntyp = 4
    nat = 10
    ibrav = 0
/ 
&ELECTRONS
    diagonalization = 'david'
    mixing_beta = 0.5
    conv_thr = 1e-07
/ 
&IONS
/ 
&CELL
/ 
K_POINTS {automatic}
 3 3 3  0 0 0
ATOMIC_SPECIES
  B 10.81 b_pbe_v1.4.uspp.F.UPF
  H 1.008 H.pbe-rrkjus_psl.1.0.0.UPF
  N 14.007 N.pbe-n-radius_5.UPF
  Na 22.98976928 na_pbe_v1.5.uspp.F.UPF
CELL_PARAMETERS {angstrom}
 4.7 0.0 0.0
 0.0 4.7 0.0
 0.0 0.0 4.7
ATOMIC_POSITIONS {angstrom}
  Na 2.35000 0.00000 2.35000
  Na 0.00000 2.35000 2.35000
  N 2.35000 2.35000 2.35000
  H 3.27395 2.35000 2.02333
  H 1.88802 3.15017 2.02333
  B 0.00000 0.00000 0.00000
  H 1.10309 0.00000 -0.39000
  H -0.55154 0.95530 -0.39000
  H -0.55154 -0.95530 -0.39000
  H 0.00000 0.00000 1.17000
