&CONTROL
    calculation = 'scf'
    pseudo_dir = '/home/modeler/qe_pseudo'
    outdir = '/home/modeler/Lab3/Problem1C/anti/Fe_anti_a_2.845479126_ecut_30_nk_14'
    tstress = .true.
    tprnfor = .true.
    disk_io = 'none'
/ 
&SYSTEM
    ecutwfc = 30
    ecutrho = 240
    nspin = 2
    starting_magnetization(1) = 1.0
    starting_magnetization(2) = -1.0
    occupations = 'smearing'
    smearing = 'mp'
    degauss = 0.02
    ntyp = 2
    nat = 2
    ibrav = 0
/ 
&ELECTRONS
    diagonalization = 'david'
    mixing_beta = 0.5
    conv_thr = 1e-07
/ 
&IONS
/ 
&CELL
/ 
K_POINTS {automatic}
 14 14 14  0 0 0
ATOMIC_SPECIES
  Fe1 55.845 Fe.pbe-nd-rrkjus.UPF
  Fe2 55.845 Fe.pbe-nd-rrkjus.UPF
CELL_PARAMETERS {angstrom}
 2.845479126 0.0 0.0
 0.0 2.845479126 0.0
 0.0 0.0 2.845479126
ATOMIC_POSITIONS {angstrom}
  Fe1 0.00000 0.00000 0.00000
  Fe2 1.42274 1.42274 1.42274
